\ Model Get_XandY
\ LP format - for model browsing. Use MPS format to capture full model detail.
Maximize
  Mx[0] + 2 Mx[1] + 0.0285714285714286 My[0,23,0]
   + 0.0285714285714286 My[1,23,0] + 0.0285714285714286 My[2,23,0]
   + 0.0285714285714286 My[3,23,0] + 0.0285714285714286 My[4,23,0]
   + 0.0285714285714286 My[5,23,0] + 0.0285714285714286 My[6,23,0]
   + 0.0285714285714286 My[7,23,0] + 0.0285714285714286 My[8,23,0]
   + 0.0285714285714286 My[9,23,0] + 0.0285714285714286 My[10,23,0]
   + 0.0285714285714286 My[11,23,0] + 0.0285714285714286 My[12,23,0]
   + 0.0285714285714286 My[13,23,0] + 0.0285714285714286 My[14,23,0]
   + 0.0285714285714286 My[15,23,0] + 0.0285714285714286 My[16,23,0]
   + 0.0285714285714286 My[17,23,0] + 0.0285714285714286 My[18,23,0]
   + 0.0285714285714286 My[19,23,0] + 0.0285714285714286 My[20,23,0]
   + 0.0285714285714286 My[21,23,0] + 0.0285714285714286 My[22,23,0]
   + 0.0285714285714286 My[23,23,0] + 0.0285714285714286 My[24,23,0]
   + 0.0285714285714286 My[25,23,0] + 0.0285714285714286 My[26,23,0]
   + 0.0285714285714286 My[27,23,0] + 0.0285714285714286 My[28,23,0]
   + 0.0285714285714286 My[29,23,0] + 0.0285714285714286 My[30,23,0]
   + 0.0285714285714286 My[31,23,0] + 0.0285714285714286 My[32,23,0]
   + 0.0285714285714286 My[33,23,0] + 0.0285714285714286 My[34,23,0]
Subject To
 b: X[0] + X[1] <= 37
 c: X[0] <= 10
 c: X[1] <= 33
 0: - X[0] + Mx[0] <= 0
 0: Mx[0] <= 10
 0: - X[0] + Mx[0] + 10000 B1[0] >= 0
 0: Mx[0] + 10000 B2[0] >= 10
 0: B1[0] + B2[0] = 1
 1: - X[1] + Mx[1] <= 0
 1: Mx[1] <= 33
 1: - X[1] + Mx[1] + 10000 B1[1] >= 0
 1: Mx[1] + 10000 B2[1] >= 33
 1: B1[1] + B2[1] = 1
 0230: - Y[23,0] + My[0,23,0] <= 0
 0230: My[0,23,0] <= 21
 0230: - Y[23,0] + My[0,23,0] + 10000 B3[0,23,0] >= 0
 0230: My[0,23,0] + 10000 B4[0,23,0] >= 21
 0230: B3[0,23,0] + B4[0,23,0] = 1
 c: 0.300000011920929 Mx[0] + Mx[1] + Y[23,0] <= 66
 1230: - Y[23,0] + My[1,23,0] <= 0
 1230: My[1,23,0] <= 21
 1230: - Y[23,0] + My[1,23,0] + 10000 B3[1,23,0] >= 0
 1230: My[1,23,0] + 10000 B4[1,23,0] >= 21
 1230: B3[1,23,0] + B4[1,23,0] = 1
 c: 0.300000011920929 Mx[0] + Mx[1] + Y[23,0] <= 66
 2230: - Y[23,0] + My[2,23,0] <= 0
 2230: My[2,23,0] <= 16
 2230: - Y[23,0] + My[2,23,0] + 10000 B3[2,23,0] >= 0
 2230: My[2,23,0] + 10000 B4[2,23,0] >= 16
 2230: B3[2,23,0] + B4[2,23,0] = 1
 c: 0.300000011920929 Mx[0] + Mx[1] + Y[23,0] <= 66
 3230: - Y[23,0] + My[3,23,0] <= 0
 3230: My[3,23,0] <= 10
 3230: - Y[23,0] + My[3,23,0] + 10000 B3[3,23,0] >= 0
 3230: My[3,23,0] + 10000 B4[3,23,0] >= 10
 3230: B3[3,23,0] + B4[3,23,0] = 1
 c: 0.300000011920929 Mx[0] + Mx[1] + Y[23,0] <= 66
 4230: - Y[23,0] + My[4,23,0] <= 0
 4230: My[4,23,0] <= 21
 4230: - Y[23,0] + My[4,23,0] + 10000 B3[4,23,0] >= 0
 4230: My[4,23,0] + 10000 B4[4,23,0] >= 21
 4230: B3[4,23,0] + B4[4,23,0] = 1
 c: 0.300000011920929 Mx[0] + Mx[1] + Y[23,0] <= 66
 5230: - Y[23,0] + My[5,23,0] <= 0
 5230: My[5,23,0] <= 15
 5230: - Y[23,0] + My[5,23,0] + 10000 B3[5,23,0] >= 0
 5230: My[5,23,0] + 10000 B4[5,23,0] >= 15
 5230: B3[5,23,0] + B4[5,23,0] = 1
 c: 0.300000011920929 Mx[0] + Mx[1] + Y[23,0] <= 66
 6230: - Y[23,0] + My[6,23,0] <= 0
 6230: My[6,23,0] <= 24
 6230: - Y[23,0] + My[6,23,0] + 10000 B3[6,23,0] >= 0
 6230: My[6,23,0] + 10000 B4[6,23,0] >= 24
 6230: B3[6,23,0] + B4[6,23,0] = 1
 c: 0.300000011920929 Mx[0] + Mx[1] + Y[23,0] <= 66
 7230: - Y[23,0] + My[7,23,0] <= 0
 7230: My[7,23,0] <= 22
 7230: - Y[23,0] + My[7,23,0] + 10000 B3[7,23,0] >= 0
 7230: My[7,23,0] + 10000 B4[7,23,0] >= 22
 7230: B3[7,23,0] + B4[7,23,0] = 1
 c: 0.300000011920929 Mx[0] + Mx[1] + Y[23,0] <= 66
 8230: - Y[23,0] + My[8,23,0] <= 0
 8230: My[8,23,0] <= 18
 8230: - Y[23,0] + My[8,23,0] + 10000 B3[8,23,0] >= 0
 8230: My[8,23,0] + 10000 B4[8,23,0] >= 18
 8230: B3[8,23,0] + B4[8,23,0] = 1
 c: 0.300000011920929 Mx[0] + Mx[1] + Y[23,0] <= 66
 9230: - Y[23,0] + My[9,23,0] <= 0
 9230: My[9,23,0] <= 20
 9230: - Y[23,0] + My[9,23,0] + 10000 B3[9,23,0] >= 0
 9230: My[9,23,0] + 10000 B4[9,23,0] >= 20
 9230: B3[9,23,0] + B4[9,23,0] = 1
 c: 0.300000011920929 Mx[0] + Mx[1] + Y[23,0] <= 66
 10230: - Y[23,0] + My[10,23,0] <= 0
 10230: My[10,23,0] <= 19
 10230: - Y[23,0] + My[10,23,0] + 10000 B3[10,23,0] >= 0
 10230: My[10,23,0] + 10000 B4[10,23,0] >= 19
 10230: B3[10,23,0] + B4[10,23,0] = 1
 c: 0.300000011920929 Mx[0] + Mx[1] + Y[23,0] <= 66
 11230: - Y[23,0] + My[11,23,0] <= 0
 11230: My[11,23,0] <= 24
 11230: - Y[23,0] + My[11,23,0] + 10000 B3[11,23,0] >= 0
 11230: My[11,23,0] + 10000 B4[11,23,0] >= 24
 11230: B3[11,23,0] + B4[11,23,0] = 1
 c: 0.300000011920929 Mx[0] + Mx[1] + Y[23,0] <= 66
 12230: - Y[23,0] + My[12,23,0] <= 0
 12230: My[12,23,0] <= 15
 12230: - Y[23,0] + My[12,23,0] + 10000 B3[12,23,0] >= 0
 12230: My[12,23,0] + 10000 B4[12,23,0] >= 15
 12230: B3[12,23,0] + B4[12,23,0] = 1
 c: 0.300000011920929 Mx[0] + Mx[1] + Y[23,0] <= 66
 13230: - Y[23,0] + My[13,23,0] <= 0
 13230: My[13,23,0] <= 17
 13230: - Y[23,0] + My[13,23,0] + 10000 B3[13,23,0] >= 0
 13230: My[13,23,0] + 10000 B4[13,23,0] >= 17
 13230: B3[13,23,0] + B4[13,23,0] = 1
 c: 0.300000011920929 Mx[0] + Mx[1] + Y[23,0] <= 66
 14230: - Y[23,0] + My[14,23,0] <= 0
 14230: My[14,23,0] <= 15
 14230: - Y[23,0] + My[14,23,0] + 10000 B3[14,23,0] >= 0
 14230: My[14,23,0] + 10000 B4[14,23,0] >= 15
 14230: B3[14,23,0] + B4[14,23,0] = 1
 c: 0.300000011920929 Mx[0] + Mx[1] + Y[23,0] <= 66
 15230: - Y[23,0] + My[15,23,0] <= 0
 15230: My[15,23,0] <= 17
 15230: - Y[23,0] + My[15,23,0] + 10000 B3[15,23,0] >= 0
 15230: My[15,23,0] + 10000 B4[15,23,0] >= 17
 15230: B3[15,23,0] + B4[15,23,0] = 1
 c: 0.300000011920929 Mx[0] + Mx[1] + Y[23,0] <= 66
 16230: - Y[23,0] + My[16,23,0] <= 0
 16230: My[16,23,0] <= 20
 16230: - Y[23,0] + My[16,23,0] + 10000 B3[16,23,0] >= 0
 16230: My[16,23,0] + 10000 B4[16,23,0] >= 20
 16230: B3[16,23,0] + B4[16,23,0] = 1
 c: 0.300000011920929 Mx[0] + Mx[1] + Y[23,0] <= 66
 17230: - Y[23,0] + My[17,23,0] <= 0
 17230: My[17,23,0] <= 22
 17230: - Y[23,0] + My[17,23,0] + 10000 B3[17,23,0] >= 0
 17230: My[17,23,0] + 10000 B4[17,23,0] >= 22
 17230: B3[17,23,0] + B4[17,23,0] = 1
 c: 0.300000011920929 Mx[0] + Mx[1] + Y[23,0] <= 66
 18230: - Y[23,0] + My[18,23,0] <= 0
 18230: My[18,23,0] <= 29
 18230: - Y[23,0] + My[18,23,0] + 10000 B3[18,23,0] >= 0
 18230: My[18,23,0] + 10000 B4[18,23,0] >= 29
 18230: B3[18,23,0] + B4[18,23,0] = 1
 c: 0.300000011920929 Mx[0] + Mx[1] + Y[23,0] <= 66
 19230: - Y[23,0] + My[19,23,0] <= 0
 19230: My[19,23,0] <= 27
 19230: - Y[23,0] + My[19,23,0] + 10000 B3[19,23,0] >= 0
 19230: My[19,23,0] + 10000 B4[19,23,0] >= 27
 19230: B3[19,23,0] + B4[19,23,0] = 1
 c: 0.300000011920929 Mx[0] + Mx[1] + Y[23,0] <= 66
 20230: - Y[23,0] + My[20,23,0] <= 0
 20230: My[20,23,0] <= 21
 20230: - Y[23,0] + My[20,23,0] + 10000 B3[20,23,0] >= 0
 20230: My[20,23,0] + 10000 B4[20,23,0] >= 21
 20230: B3[20,23,0] + B4[20,23,0] = 1
 c: 0.300000011920929 Mx[0] + Mx[1] + Y[23,0] <= 66
 21230: - Y[23,0] + My[21,23,0] <= 0
 21230: My[21,23,0] <= 20
 21230: - Y[23,0] + My[21,23,0] + 10000 B3[21,23,0] >= 0
 21230: My[21,23,0] + 10000 B4[21,23,0] >= 20
 21230: B3[21,23,0] + B4[21,23,0] = 1
 c: 0.300000011920929 Mx[0] + Mx[1] + Y[23,0] <= 66
 22230: - Y[23,0] + My[22,23,0] <= 0
 22230: My[22,23,0] <= 23
 22230: - Y[23,0] + My[22,23,0] + 10000 B3[22,23,0] >= 0
 22230: My[22,23,0] + 10000 B4[22,23,0] >= 23
 22230: B3[22,23,0] + B4[22,23,0] = 1
 c: 0.300000011920929 Mx[0] + Mx[1] + Y[23,0] <= 66
 23230: - Y[23,0] + My[23,23,0] <= 0
 23230: My[23,23,0] <= 20
 23230: - Y[23,0] + My[23,23,0] + 10000 B3[23,23,0] >= 0
 23230: My[23,23,0] + 10000 B4[23,23,0] >= 20
 23230: B3[23,23,0] + B4[23,23,0] = 1
 c: 0.300000011920929 Mx[0] + Mx[1] + Y[23,0] <= 66
 24230: - Y[23,0] + My[24,23,0] <= 0
 24230: My[24,23,0] <= 14
 24230: - Y[23,0] + My[24,23,0] + 10000 B3[24,23,0] >= 0
 24230: My[24,23,0] + 10000 B4[24,23,0] >= 14
 24230: B3[24,23,0] + B4[24,23,0] = 1
 c: 0.300000011920929 Mx[0] + Mx[1] + Y[23,0] <= 66
 25230: - Y[23,0] + My[25,23,0] <= 0
 25230: My[25,23,0] <= 17
 25230: - Y[23,0] + My[25,23,0] + 10000 B3[25,23,0] >= 0
 25230: My[25,23,0] + 10000 B4[25,23,0] >= 17
 25230: B3[25,23,0] + B4[25,23,0] = 1
 c: 0.300000011920929 Mx[0] + Mx[1] + Y[23,0] <= 66
 26230: - Y[23,0] + My[26,23,0] <= 0
 26230: My[26,23,0] <= 25
 26230: - Y[23,0] + My[26,23,0] + 10000 B3[26,23,0] >= 0
 26230: My[26,23,0] + 10000 B4[26,23,0] >= 25
 26230: B3[26,23,0] + B4[26,23,0] = 1
 c: 0.300000011920929 Mx[0] + Mx[1] + Y[23,0] <= 66
 27230: - Y[23,0] + My[27,23,0] <= 0
 27230: My[27,23,0] <= 17
 27230: - Y[23,0] + My[27,23,0] + 10000 B3[27,23,0] >= 0
 27230: My[27,23,0] + 10000 B4[27,23,0] >= 17
 27230: B3[27,23,0] + B4[27,23,0] = 1
 c: 0.300000011920929 Mx[0] + Mx[1] + Y[23,0] <= 66
 28230: - Y[23,0] + My[28,23,0] <= 0
 28230: My[28,23,0] <= 18
 28230: - Y[23,0] + My[28,23,0] + 10000 B3[28,23,0] >= 0
 28230: My[28,23,0] + 10000 B4[28,23,0] >= 18
 28230: B3[28,23,0] + B4[28,23,0] = 1
 c: 0.300000011920929 Mx[0] + Mx[1] + Y[23,0] <= 66
 29230: - Y[23,0] + My[29,23,0] <= 0
 29230: My[29,23,0] <= 25
 29230: - Y[23,0] + My[29,23,0] + 10000 B3[29,23,0] >= 0
 29230: My[29,23,0] + 10000 B4[29,23,0] >= 25
 29230: B3[29,23,0] + B4[29,23,0] = 1
 c: 0.300000011920929 Mx[0] + Mx[1] + Y[23,0] <= 66
 30230: - Y[23,0] + My[30,23,0] <= 0
 30230: My[30,23,0] <= 21
 30230: - Y[23,0] + My[30,23,0] + 10000 B3[30,23,0] >= 0
 30230: My[30,23,0] + 10000 B4[30,23,0] >= 21
 30230: B3[30,23,0] + B4[30,23,0] = 1
 c: 0.300000011920929 Mx[0] + Mx[1] + Y[23,0] <= 66
 31230: - Y[23,0] + My[31,23,0] <= 0
 31230: My[31,23,0] <= 16
 31230: - Y[23,0] + My[31,23,0] + 10000 B3[31,23,0] >= 0
 31230: My[31,23,0] + 10000 B4[31,23,0] >= 16
 31230: B3[31,23,0] + B4[31,23,0] = 1
 c: 0.300000011920929 Mx[0] + Mx[1] + Y[23,0] <= 66
 32230: - Y[23,0] + My[32,23,0] <= 0
 32230: My[32,23,0] <= 15
 32230: - Y[23,0] + My[32,23,0] + 10000 B3[32,23,0] >= 0
 32230: My[32,23,0] + 10000 B4[32,23,0] >= 15
 32230: B3[32,23,0] + B4[32,23,0] = 1
 c: 0.300000011920929 Mx[0] + Mx[1] + Y[23,0] <= 66
 33230: - Y[23,0] + My[33,23,0] <= 0
 33230: My[33,23,0] <= 23
 33230: - Y[23,0] + My[33,23,0] + 10000 B3[33,23,0] >= 0
 33230: My[33,23,0] + 10000 B4[33,23,0] >= 23
 33230: B3[33,23,0] + B4[33,23,0] = 1
 c: 0.300000011920929 Mx[0] + Mx[1] + Y[23,0] <= 66
 34230: - Y[23,0] + My[34,23,0] <= 0
 34230: My[34,23,0] <= 19
 34230: - Y[23,0] + My[34,23,0] + 10000 B3[34,23,0] >= 0
 34230: My[34,23,0] + 10000 B4[34,23,0] >= 19
 34230: B3[34,23,0] + B4[34,23,0] = 1
 c: 0.300000011920929 Mx[0] + Mx[1] + Y[23,0] <= 66
 R223: y[0,23] = 0
 R224: y[1,23] = 0
 R225: y[2,23] = 0
 R226: y[3,23] = 0
 R227: y[4,23] = 0
 R228: y[5,23] = 0
 R229: y[6,23] = 0
 R230: y[7,23] = 0
 R231: y[8,23] = 0
 R232: y[9,23] = 0
 R233: y[10,23] = 0
 R234: y[11,23] = 0
 R235: y[12,23] = 0
 R236: y[13,23] = 0
 R237: y[14,23] = 0
 R238: y[15,23] = 0
 R239: y[16,23] = 0
 R240: y[17,23] = 0
 R241: y[18,23] = 0
 R242: y[19,23] = 0
 R243: y[20,23] = 0
 R244: y[21,23] = 0
 R245: y[22,23] = 0
 R246: y[23,23] = 0
 R247: y[24,23] = 0
 R248: y[25,23] = 0
 R249: y[26,23] = 0
 R250: y[27,23] = 0
 R251: y[28,23] = 0
 R252: y[29,23] = 0
 R253: y[30,23] = 0
 R254: y[31,23] = 0
 R255: y[32,23] = 0
 R256: y[33,23] = 0
 R257: y[34,23] = 0
 d: Y[23,0] <= 10
 g: Z[0] + Z[1] + Z[2] + Z[3] + Z[4] + Z[5] + Z[6] + Z[7] + Z[8] + Z[9]
   + Z[10] + Z[11] + Z[12] + Z[13] + Z[14] + Z[15] + Z[16] + Z[17] + Z[18]
   + Z[19] + Z[20] + Z[21] + Z[22] + Z[23] + Z[24] + Z[25] + Z[26] + Z[27]
   + Z[28] + Z[29] + Z[30] + Z[31] + Z[32] + Z[33] + Z[34] <= 0
Bounds
Binaries
 B1[0] B1[1] B2[0] B2[1] B3[0,23,0] B3[1,23,0] B3[2,23,0] B3[3,23,0]
 B3[4,23,0] B3[5,23,0] B3[6,23,0] B3[7,23,0] B3[8,23,0] B3[9,23,0]
 B3[10,23,0] B3[11,23,0] B3[12,23,0] B3[13,23,0] B3[14,23,0] B3[15,23,0]
 B3[16,23,0] B3[17,23,0] B3[18,23,0] B3[19,23,0] B3[20,23,0] B3[21,23,0]
 B3[22,23,0] B3[23,23,0] B3[24,23,0] B3[25,23,0] B3[26,23,0] B3[27,23,0]
 B3[28,23,0] B3[29,23,0] B3[30,23,0] B3[31,23,0] B3[32,23,0] B3[33,23,0]
 B3[34,23,0] B4[0,23,0] B4[1,23,0] B4[2,23,0] B4[3,23,0] B4[4,23,0]
 B4[5,23,0] B4[6,23,0] B4[7,23,0] B4[8,23,0] B4[9,23,0] B4[10,23,0]
 B4[11,23,0] B4[12,23,0] B4[13,23,0] B4[14,23,0] B4[15,23,0] B4[16,23,0]
 B4[17,23,0] B4[18,23,0] B4[19,23,0] B4[20,23,0] B4[21,23,0] B4[22,23,0]
 B4[23,23,0] B4[24,23,0] B4[25,23,0] B4[26,23,0] B4[27,23,0] B4[28,23,0]
 B4[29,23,0] B4[30,23,0] B4[31,23,0] B4[32,23,0] B4[33,23,0] B4[34,23,0]
 y[0,23] y[1,23] y[2,23] y[3,23] y[4,23] y[5,23] y[6,23] y[7,23] y[8,23]
 y[9,23] y[10,23] y[11,23] y[12,23] y[13,23] y[14,23] y[15,23] y[16,23]
 y[17,23] y[18,23] y[19,23] y[20,23] y[21,23] y[22,23] y[23,23] y[24,23]
 y[25,23] y[26,23] y[27,23] y[28,23] y[29,23] y[30,23] y[31,23] y[32,23]
 y[33,23] y[34,23] Z[0] Z[1] Z[2] Z[3] Z[4] Z[5] Z[6] Z[7] Z[8] Z[9] Z[10]
 Z[11] Z[12] Z[13] Z[14] Z[15] Z[16] Z[17] Z[18] Z[19] Z[20] Z[21] Z[22]
 Z[23] Z[24] Z[25] Z[26] Z[27] Z[28] Z[29] Z[30] Z[31] Z[32] Z[33] Z[34]
Generals
 X[0] X[1] Mx[0] Mx[1] Y[23,0] My[0,23,0] My[1,23,0] My[2,23,0] My[3,23,0]
 My[4,23,0] My[5,23,0] My[6,23,0] My[7,23,0] My[8,23,0] My[9,23,0]
 My[10,23,0] My[11,23,0] My[12,23,0] My[13,23,0] My[14,23,0] My[15,23,0]
 My[16,23,0] My[17,23,0] My[18,23,0] My[19,23,0] My[20,23,0] My[21,23,0]
 My[22,23,0] My[23,23,0] My[24,23,0] My[25,23,0] My[26,23,0] My[27,23,0]
 My[28,23,0] My[29,23,0] My[30,23,0] My[31,23,0] My[32,23,0] My[33,23,0]
 My[34,23,0]
End
